%%% static parameters %%%
timespan = 1;
initial_fruit_bushes = [40];
initial_foragers = [40];
ticks_to_flee = [100];
bush_growth_chance = [10];
rate_of_mutation = [5.0];
%%% dynamic parameters %%%
mean_strength_th = 0.40298756561741056;
mean_strength_w = 90;
mean_speed_th = 0.4806056973419197;
mean_speed_w = 54;
mean_intelligence_th = 0.8201331675299481;
mean_intelligence_w = 86;
murder_rate_th = 0.4589616437527698;
murder_rate_w = 47;
age_death_rate_th = 0.5006355881358036;
age_death_rate_w = 40;
starvation_rate_th = 0.7829963518663504;
starvation_rate_w = 15;
mean_reactive_aggression_th = 0.8043794970482743;
mean_reactive_aggression_w = 26;
mean_proactive_aggression_th = 0.0993358793142044;
mean_proactive_aggression_w = 22;
